min: c;

c = 2.88762664056472 * u2_t7_h3 + 3.48251036425409 * u2_t7_h4 + 4.02813822962195 * u2_t2_h5 + 4.02813822962195 * u2_t3_h5 + 4.02813822962195 * u2_t7_h5 + 3.53367152719629 * u2_t2_h6 + 3.53367152719629 * u2_t3_h6 + 3.53367152719629 * u2_t4_h6 + 3.53367152719629 * u2_t7_h6 + 3.53367152719629 * u2_t10_h6 + 4.4956929277954 * u2_t2_h7 + 4.4956929277954 * u2_t3_h7 + 4.4956929277954 * u2_t4_h7 + 4.4956929277954 * u2_t7_h7 + 4.4956929277954 * u2_t10_h7 + 5.69771445030462 * u2_t2_h8 + 5.69771445030462 * u2_t3_h8 + 5.69771445030462 * u2_t4_h8 + 5.69771445030462 * u2_t7_h8 + 5.69771445030462 * u2_t10_h8 + 5.01423108263539 * u2_t2_h9 + 5.01423108263539 * u2_t3_h9 + 5.01423108263539 * u2_t4_h9 + 5.01423108263539 * u2_t7_h9 + 5.01423108263539 * u2_t10_h9 + 5.88236803148976 * u2_t2_h10 + 5.88236803148976 * u2_t3_h10 + 5.88236803148976 * u2_t4_h10 + 5.88236803148976 * u2_t7_h10 + 5.88236803148976 * u2_t10_h10 + 4.24488891703295 * u2_t1_h11 + 4.24488891703295 * u2_t2_h11 + 4.24488891703295 * u2_t3_h11 + 4.24488891703295 * u2_t4_h11 + 4.24488891703295 * u2_t7_h11 + 4.24488891703295 * u2_t10_h11 + 6.02534456390865 * u2_t1_h12 + 6.02534456390865 * u2_t3_h12 + 6.02534456390865 * u2_t4_h12 + 6.02534456390865 * u2_t7_h12 + 4.33431837204348 * u2_t1_h13 + 4.33431837204348 * u2_t3_h13 + 4.33431837204348 * u2_t4_h13 + 4.33431837204348 * u2_t7_h13 + 4.33431837204348 * u2_t9_h13 + 5.45940163553246 * u2_t1_h14 + 5.45940163553246 * u2_t3_h14 + 5.45940163553246 * u2_t4_h14 + 5.45940163553246 * u2_t7_h14 + 5.45940163553246 * u2_t9_h14 + 6.14372495664315 * u2_t1_h15 + 6.14372495664315 * u2_t3_h15 + 6.14372495664315 * u2_t4_h15 + 6.14372495664315 * u2_t7_h15 + 6.14372495664315 * u2_t9_h15 + 5.83077866069565 * u2_t1_h16 + 5.83077866069565 * u2_t3_h16 + 5.83077866069565 * u2_t4_h16 + 5.83077866069565 * u2_t7_h16 + 5.83077866069565 * u2_t9_h16 + 5.99749613822701 * u2_t1_h17 + 5.99749613822701 * u2_t3_h17 + 5.99749613822701 * u2_t4_h17 + 5.99749613822701 * u2_t7_h17 + 5.99749613822701 * u2_t9_h17 + 6.16603389575716 * u2_t1_h18 + 6.16603389575716 * u2_t3_h18 + 6.16603389575716 * u2_t4_h18 + 6.16603389575716 * u2_t6_h18 + 6.16603389575716 * u2_t7_h18 + 5.15899739903034 * u2_t1_h19 + 5.15899739903034 * u2_t3_h19 + 5.15899739903034 * u2_t4_h19 + 5.15899739903034 * u2_t5_h19 + 5.15899739903034 * u2_t6_h19 + 5.15899739903034 * u2_t7_h19 + 5.76759541482246 * u2_t1_h20 + 5.76759541482246 * u2_t3_h20 + 5.76759541482246 * u2_t4_h20 + 5.76759541482246 * u2_t6_h20 + 5.76759541482246 * u2_t7_h20 + 4.78865370798787 * u2_t1_h21 + 4.78865370798787 * u2_t3_h21 + 4.78865370798787 * u2_t6_h21 + 4.78865370798787 * u2_t7_h21 + 4.78865370798787 * u2_t8_h21 + 5.84752323362847 * u2_t1_h22 + 5.84752323362847 * u2_t3_h22 + 5.84752323362847 * u2_t7_h22 + 5.84752323362847 * u2_t8_h22 + 5.85003253256557 * u2_t3_h23 + 5.85003253256557 * u2_t7_h23 + 5.85003253256557 * u2_t8_h23;
0 <= u2_t1_h11 <= 1;
0 <= u2_t1_h12 <= 1;
0 <= u2_t1_h13 <= 1;
0 <= u2_t1_h14 <= 1;
0 <= u2_t1_h15 <= 1;
0 <= u2_t1_h16 <= 1;
0 <= u2_t1_h17 <= 1;
0 <= u2_t1_h18 <= 1;
0 <= u2_t1_h19 <= 1;
0 <= u2_t1_h20 <= 1;
0 <= u2_t1_h21 <= 1;
0 <= u2_t1_h22 <= 1;
u2_t1_h11 + u2_t1_h12 + u2_t1_h13 + u2_t1_h14 + u2_t1_h15 + u2_t1_h16 + u2_t1_h17 + u2_t1_h18 + u2_t1_h19 + u2_t1_h20 + u2_t1_h21 + u2_t1_h22 = 2;
0 <= u2_t2_h5 <= 1;
0 <= u2_t2_h6 <= 1;
0 <= u2_t2_h7 <= 1;
0 <= u2_t2_h8 <= 1;
0 <= u2_t2_h9 <= 1;
0 <= u2_t2_h10 <= 1;
0 <= u2_t2_h11 <= 1;
u2_t2_h5 + u2_t2_h6 + u2_t2_h7 + u2_t2_h8 + u2_t2_h9 + u2_t2_h10 + u2_t2_h11 = 2;
0 <= u2_t3_h5 <= 1;
0 <= u2_t3_h6 <= 1;
0 <= u2_t3_h7 <= 1;
0 <= u2_t3_h8 <= 1;
0 <= u2_t3_h9 <= 1;
0 <= u2_t3_h10 <= 1;
0 <= u2_t3_h11 <= 1;
0 <= u2_t3_h12 <= 1;
0 <= u2_t3_h13 <= 1;
0 <= u2_t3_h14 <= 1;
0 <= u2_t3_h15 <= 1;
0 <= u2_t3_h16 <= 1;
0 <= u2_t3_h17 <= 1;
0 <= u2_t3_h18 <= 1;
0 <= u2_t3_h19 <= 1;
0 <= u2_t3_h20 <= 1;
0 <= u2_t3_h21 <= 1;
0 <= u2_t3_h22 <= 1;
0 <= u2_t3_h23 <= 1;
u2_t3_h5 + u2_t3_h6 + u2_t3_h7 + u2_t3_h8 + u2_t3_h9 + u2_t3_h10 + u2_t3_h11 + u2_t3_h12 + u2_t3_h13 + u2_t3_h14 + u2_t3_h15 + u2_t3_h16 + u2_t3_h17 + u2_t3_h18 + u2_t3_h19 + u2_t3_h20 + u2_t3_h21 + u2_t3_h22 + u2_t3_h23 = 1;
0 <= u2_t4_h6 <= 1;
0 <= u2_t4_h7 <= 1;
0 <= u2_t4_h8 <= 1;
0 <= u2_t4_h9 <= 1;
0 <= u2_t4_h10 <= 1;
0 <= u2_t4_h11 <= 1;
0 <= u2_t4_h12 <= 1;
0 <= u2_t4_h13 <= 1;
0 <= u2_t4_h14 <= 1;
0 <= u2_t4_h15 <= 1;
0 <= u2_t4_h16 <= 1;
0 <= u2_t4_h17 <= 1;
0 <= u2_t4_h18 <= 1;
0 <= u2_t4_h19 <= 1;
0 <= u2_t4_h20 <= 1;
u2_t4_h6 + u2_t4_h7 + u2_t4_h8 + u2_t4_h9 + u2_t4_h10 + u2_t4_h11 + u2_t4_h12 + u2_t4_h13 + u2_t4_h14 + u2_t4_h15 + u2_t4_h16 + u2_t4_h17 + u2_t4_h18 + u2_t4_h19 + u2_t4_h20 = 3;
0 <= u2_t5_h19 <= 1;
u2_t5_h19 = 1;
0 <= u2_t6_h18 <= 1;
0 <= u2_t6_h19 <= 1;
0 <= u2_t6_h20 <= 1;
0 <= u2_t6_h21 <= 1;
u2_t6_h18 + u2_t6_h19 + u2_t6_h20 + u2_t6_h21 = 2;
0 <= u2_t7_h3 <= 1;
0 <= u2_t7_h4 <= 1;
0 <= u2_t7_h5 <= 1;
0 <= u2_t7_h6 <= 1;
0 <= u2_t7_h7 <= 1;
0 <= u2_t7_h8 <= 1;
0 <= u2_t7_h9 <= 1;
0 <= u2_t7_h10 <= 1;
0 <= u2_t7_h11 <= 1;
0 <= u2_t7_h12 <= 1;
0 <= u2_t7_h13 <= 1;
0 <= u2_t7_h14 <= 1;
0 <= u2_t7_h15 <= 1;
0 <= u2_t7_h16 <= 1;
0 <= u2_t7_h17 <= 1;
0 <= u2_t7_h18 <= 1;
0 <= u2_t7_h19 <= 1;
0 <= u2_t7_h20 <= 1;
0 <= u2_t7_h21 <= 1;
0 <= u2_t7_h22 <= 1;
0 <= u2_t7_h23 <= 1;
u2_t7_h3 + u2_t7_h4 + u2_t7_h5 + u2_t7_h6 + u2_t7_h7 + u2_t7_h8 + u2_t7_h9 + u2_t7_h10 + u2_t7_h11 + u2_t7_h12 + u2_t7_h13 + u2_t7_h14 + u2_t7_h15 + u2_t7_h16 + u2_t7_h17 + u2_t7_h18 + u2_t7_h19 + u2_t7_h20 + u2_t7_h21 + u2_t7_h22 + u2_t7_h23 = 3;
0 <= u2_t8_h21 <= 1;
0 <= u2_t8_h22 <= 1;
0 <= u2_t8_h23 <= 1;
u2_t8_h21 + u2_t8_h22 + u2_t8_h23 = 2;
0 <= u2_t9_h13 <= 1;
0 <= u2_t9_h14 <= 1;
0 <= u2_t9_h15 <= 1;
0 <= u2_t9_h16 <= 1;
0 <= u2_t9_h17 <= 1;
u2_t9_h13 + u2_t9_h14 + u2_t9_h15 + u2_t9_h16 + u2_t9_h17 = 1;
0 <= u2_t10_h6 <= 1;
0 <= u2_t10_h7 <= 1;
0 <= u2_t10_h8 <= 1;
0 <= u2_t10_h9 <= 1;
0 <= u2_t10_h10 <= 1;
0 <= u2_t10_h11 <= 1;
u2_t10_h6 + u2_t10_h7 + u2_t10_h8 + u2_t10_h9 + u2_t10_h10 + u2_t10_h11 = 2;
